inputs/485.in
10
0 55 40 92 5 54 40 5 20 26 
55 0 42 65 90 93 45 46 18 29 
40 42 0 23 87 73 37 43 26 32 
92 65 23 0 20 78 89 44 22 84 
5 90 87 20 0 36 33 92 86 86 
54 93 73 78 36 0 55 68 91 78 
40 45 37 89 33 55 0 53 72 43 
5 46 43 44 92 68 53 0 77 23 
20 18 26 22 86 91 72 77 0 61 
26 29 32 84 86 78 43 23 61 0 
RRBRBBBBRR
