output/485.out
7 2 9 4 3 10 8 1 5 6 
